1 51 2
-710 -700 -203 -382 -480 -509 -339 -760 -599 -470 -567 -336 -528 -724 -355 -487 -856 -193 -436 -836 -586 -781 -423 -441 -845 -799 -451 -162 -643 -257 -598 -841 -338 -449 -271 -87 -653 -109 -8 -177 -432 -570 -352 -85 -919 -713 -473 -460 -395 -211 0 
-303 -265 -806 -639 -423 -423 -731 -304 -393 -498 -445 -737 -545 -256 -670 -458 -203 -761 -541 -72 -382 -153 -646 -562 -97 -164 -518 -785 -390 -719 -362 -151 -689 -548 -706 -989 -401 -828 -967 -898 -581 -487 -611 -991 -57 -324 -454 -455 -557 -823 0 
139 765 166 93 184 846 531 199 670 389 243 988 586 969 410 449 665 54 704 7 258 941 232 710 986 109 147 727 578 504 685 704 451 323 418 249 729 718 130 461 906 449 889 96 986 945 464 339 402 747 1 
12670 
